56
120
84	2
83	1
82	1
81	1
80	2
79	4
78	1
77	2
76	2
75	1
72	2
71	1
70	1
68	1
65	2
64	2
62	1
61	4
60	4
59	2
58	3
56	1
55	1
54	1
51	2
50	1
49	1
46	3
45	2
44	4
43	2
42	2
40	1
39	2
38	2
37	1
36	3
35	1
34	1
33	2
32	3
31	1
30	3
29	4
28	1
25	1
24	1
23	2
21	1
19	1
18	1
17	1
16	2
15	3
13	1
12	1
